NAME          
ROWS
 N  OBJ
 L  c1
 L  c2
COLUMNS
    MARKER    'MARKER'                 'INTORG'
    x[1]      c1        101
    x[1]      c2        907
    x[1]      OBJ       -457
    x[2]      c1        736
    x[2]      c2        575
    x[2]      OBJ       -874
    x[3]      c1        152
    x[3]      c2        222
    x[3]      OBJ       -193
    x[4]      c1        826
    x[4]      c2        508
    x[4]      OBJ       -16
    x[5]      c1        268
    x[5]      c2        765
    x[5]      OBJ       -386
    x[6]      c1        753
    x[6]      c2        113
    x[6]      OBJ       -618
    x[7]      c1        945
    x[7]      c2        184
    x[7]      OBJ       -795
    x[8]      c1        990
    x[8]      c2        796
    x[8]      OBJ       -777
    x[9]      c1        799
    x[9]      c2        623
    x[9]      OBJ       -251
    x[10]     c1        688
    x[10]     c2        529
    x[10]     OBJ       -501
    x[11]     c1        712
    x[11]     c2        51
    x[11]     OBJ       -534
    x[12]     c1        724
    x[12]     c2        127
    x[12]     OBJ       -804
    x[13]     c1        118
    x[13]     c2        396
    x[13]     OBJ       -898
    x[14]     c1        462
    x[14]     c2        514
    x[14]     OBJ       -195
    x[15]     c1        782
    x[15]     c2        409
    x[15]     OBJ       -232
    x[16]     c1        414
    x[16]     c2        92
    x[16]     OBJ       -422
    x[17]     c1        757
    x[17]     c2        757
    x[17]     OBJ       -498
    x[18]     c1        648
    x[18]     c2        850
    x[18]     OBJ       -654
    x[19]     c1        595
    x[19]     c2        782
    x[19]     OBJ       -353
    x[20]     c1        105
    x[20]     c2        416
    x[20]     OBJ       -932
    x[21]     c1        594
    x[21]     c2        456
    x[21]     OBJ       -537
    x[22]     c1        874
    x[22]     c2        671
    x[22]     OBJ       -770
    x[23]     c1        416
    x[23]     c2        219
    x[23]     OBJ       -606
    x[24]     c1        414
    x[24]     c2        165
    x[24]     OBJ       -789
    x[25]     c1        527
    x[25]     c2        495
    x[25]     OBJ       -273
    x[26]     c1        821
    x[26]     c2        787
    x[26]     OBJ       -151
    x[27]     c1        268
    x[27]     c2        261
    x[27]     OBJ       -74
    x[28]     c1        957
    x[28]     c2        184
    x[28]     OBJ       -935
    x[29]     c1        927
    x[29]     c2        565
    x[29]     OBJ       -980
    x[30]     c1        337
    x[30]     c2        22
    x[30]     OBJ       -499
    x[31]     c1        906
    x[31]     c2        947
    x[31]     OBJ       -872
    x[32]     c1        153
    x[32]     c2        905
    x[32]     OBJ       -726
    x[33]     c1        792
    x[33]     c2        106
    x[33]     OBJ       -77
    x[34]     c1        302
    x[34]     c2        843
    x[34]     OBJ       -548
    x[35]     c1        557
    x[35]     c2        667
    x[35]     OBJ       -64
RHS
    rhs       c1        10210
    rhs       c2        8454
RANGES
BOUNDS
 BV bounds    x[1]
 BV bounds    x[2]
 BV bounds    x[3]
 BV bounds    x[4]
 BV bounds    x[5]
 BV bounds    x[6]
 BV bounds    x[7]
 BV bounds    x[8]
 BV bounds    x[9]
 BV bounds    x[10]
 BV bounds    x[11]
 BV bounds    x[12]
 BV bounds    x[13]
 BV bounds    x[14]
 BV bounds    x[15]
 BV bounds    x[16]
 BV bounds    x[17]
 BV bounds    x[18]
 BV bounds    x[19]
 BV bounds    x[20]
 BV bounds    x[21]
 BV bounds    x[22]
 BV bounds    x[23]
 BV bounds    x[24]
 BV bounds    x[25]
 BV bounds    x[26]
 BV bounds    x[27]
 BV bounds    x[28]
 BV bounds    x[29]
 BV bounds    x[30]
 BV bounds    x[31]
 BV bounds    x[32]
 BV bounds    x[33]
 BV bounds    x[34]
 BV bounds    x[35]
ENDATA
